NAME          
ROWS
 N  OBJ
 L  c1
 L  c2
 L  c3
 L  c4
 L  c5
COLUMNS
    MARKER    'MARKER'                 'INTORG'
    x[1]      c1        44
    x[1]      c2        317
    x[1]      c3        621
    x[1]      c4        11
    x[1]      c5        885
    x[1]      OBJ       -458
    x[2]      c1        885
    x[2]      c2        997
    x[2]      c3        475
    x[2]      c4        252
    x[2]      c5        880
    x[2]      OBJ       -561
    x[3]      c1        210
    x[3]      c2        755
    x[3]      c3        33
    x[3]      c4        817
    x[3]      c5        570
    x[3]      OBJ       -964
    x[4]      c1        446
    x[4]      c2        506
    x[4]      c3        208
    x[4]      c4        659
    x[4]      c5        87
    x[4]      OBJ       -939
    x[5]      c1        889
    x[5]      c2        855
    x[5]      c3        156
    x[5]      c4        159
    x[5]      c5        671
    x[5]      OBJ       -398
    x[6]      c1        142
    x[6]      c2        444
    x[6]      c3        738
    x[6]      c4        216
    x[6]      c5        470
    x[6]      OBJ       -110
    x[7]      c1        369
    x[7]      c2        289
    x[7]      c3        184
    x[7]      c4        91
    x[7]      c5        224
    x[7]      OBJ       -590
    x[8]      c1        883
    x[8]      c2        993
    x[8]      c3        932
    x[8]      c4        429
    x[8]      c5        783
    x[8]      OBJ       -710
    x[9]      c1        888
    x[9]      c2        591
    x[9]      c3        503
    x[9]      c4        387
    x[9]      c5        693
    x[9]      OBJ       -856
    x[10]     c1        305
    x[10]     c2        730
    x[10]     c3        924
    x[10]     c4        194
    x[10]     c5        730
    x[10]     OBJ       -186
    x[11]     c1        839
    x[11]     c2        580
    x[11]     c3        745
    x[11]     c4        637
    x[11]     c5        36
    x[11]     OBJ       -649
    x[12]     c1        482
    x[12]     c2        758
    x[12]     c3        159
    x[12]     c4        303
    x[12]     c5        496
    x[12]     OBJ       -623
    x[13]     c1        923
    x[13]     c2        692
    x[13]     c3        69
    x[13]     c4        26
    x[13]     c5        1000
    x[13]     OBJ       -9
    x[14]     c1        649
    x[14]     c2        934
    x[14]     c3        807
    x[14]     c4        91
    x[14]     c5        462
    x[14]     OBJ       -826
    x[15]     c1        85
    x[15]     c2        805
    x[15]     c3        958
    x[15]     c4        663
    x[15]     c5        86
    x[15]     OBJ       -486
    x[16]     c1        430
    x[16]     c2        688
    x[16]     c3        172
    x[16]     c4        244
    x[16]     c5        514
    x[16]     OBJ       -187
    x[17]     c1        571
    x[17]     c2        849
    x[17]     c3        955
    x[17]     c4        526
    x[17]     c5        760
    x[17]     OBJ       -519
    x[18]     c1        225
    x[18]     c2        265
    x[18]     c3        255
    x[18]     c4        393
    x[18]     c5        437
    x[18]     OBJ       -941
    x[19]     c1        110
    x[19]     c2        896
    x[19]     c3        41
    x[19]     c4        984
    x[19]     c5        809
    x[19]     OBJ       -122
    x[20]     c1        970
    x[20]     c2        918
    x[20]     c3        914
    x[20]     c4        167
    x[20]     c5        508
    x[20]     OBJ       -938
    x[21]     c1        578
    x[21]     c2        95
    x[21]     c3        124
    x[21]     c4        555
    x[21]     c5        302
    x[21]     OBJ       -945
    x[22]     c1        99
    x[22]     c2        158
    x[22]     c3        189
    x[22]     c4        723
    x[22]     c5        220
    x[22]     OBJ       -461
    x[23]     c1        716
    x[23]     c2        938
    x[23]     c3        198
    x[23]     c4        34
    x[23]     c5        669
    x[23]     OBJ       -710
    x[24]     c1        131
    x[24]     c2        65
    x[24]     c3        549
    x[24]     c4        153
    x[24]     c5        87
    x[24]     OBJ       -907
    x[25]     c1        55
    x[25]     c2        559
    x[25]     c3        353
    x[25]     c4        490
    x[25]     c5        68
    x[25]     OBJ       -46
RHS
    rhs       c1        5962
    rhs       c2        7838
    rhs       c3        5631
    rhs       c4        4602
    rhs       c5        6224
RANGES
BOUNDS
 BV bounds    x[1]
 BV bounds    x[2]
 BV bounds    x[3]
 BV bounds    x[4]
 BV bounds    x[5]
 BV bounds    x[6]
 BV bounds    x[7]
 BV bounds    x[8]
 BV bounds    x[9]
 BV bounds    x[10]
 BV bounds    x[11]
 BV bounds    x[12]
 BV bounds    x[13]
 BV bounds    x[14]
 BV bounds    x[15]
 BV bounds    x[16]
 BV bounds    x[17]
 BV bounds    x[18]
 BV bounds    x[19]
 BV bounds    x[20]
 BV bounds    x[21]
 BV bounds    x[22]
 BV bounds    x[23]
 BV bounds    x[24]
 BV bounds    x[25]
ENDATA
